NAME : n80w120.005.591.tour
COMMENT : Length = 591
COMMENT : Found by LKH [Keld Helsgaun] Tue May  2 05:19:07 2017
TYPE : TOUR
DIMENSION : 81
TOUR_SECTION
1
48
17
13
71
23
5
64
10
72
59
67
40
65
6
70
12
21
7
32
79
51
28
55
62
43
49
56
60
54
19
38
3
74
47
29
16
8
26
35
63
50
69
36
77
42
39
11
66
33
76
75
52
45
53
46
2
27
44
37
41
31
20
68
80
4
30
18
78
58
9
22
24
61
14
15
73
57
34
25
81
-1
EOF
